c This Formular is generated by mcnf
c
c    horn? no 
c    forced? no 
c    mixed sat? no 
c    clause length = 3 
c
p cnf 20  91 
 11 -4 7 0
-7 -16 -19 0
-18 13 -6 0
-13 2 14 0
-12 9 -20 0
2 -6 11 0
11 -20 -1 0
-8 11 -10 0
9 -19 -15 0
6 8 -19 0
14 -15 -8 0
-5 -20 -7 0
-9 -6 -15 0
-13 20 -10 0
19 -11 -16 0
20 10 4 0
11 10 9 0
-17 12 11 0
-5 -3 -8 0
11 -12 -3 0
2 19 -8 0
%
0

85 17 29 15 58 55 42 23 12 100 71 78 2 57 19 25 59 5 20 7
